language ESSENCE' 1.0
$ Minion SolverNodes: 14368
$ Minion SolverTotalTime: 10.0219
$ Minion SolverTimeOut: 0
$ Savile Row TotalTime: 14.053
letting numberOfTurningPoints be 9
letting states be [[[0, 0, 0, 0], 
[0, 1, 0, 0], 
[0, 0, 0, 0], 
[0, 0, 1, 0], 
[0, 0, 1, 0], 
[0, 0, 1, 0], 
[0, 0, 0, 0], 
[1, 1, 0, 0]], 
[[0, 0, 0, 0], 
[0, 1, 0, 0], 
[0, 0, 0, 0], 
[0, 0, 1, 0], 
[0, 0, 1, 0], 
[0, 0, 1, 0], 
[0, 0, 1, 0], 
[1, 1, 1, 0]], 
[[0, 0, 0, 0], 
[0, 1, 0, 0], 
[0, 0, 0, 0], 
[0, 0, 1, 0], 
[0, 0, 1, 0], 
[0, 0, 1, 0], 
[0, 0, 1, 0], 
[1, 1, 1, 1]], 
[[0, 0, 0, 1], 
[0, 1, 0, 1], 
[0, 0, 0, 1], 
[0, 0, 1, 1], 
[0, 0, 1, 1], 
[0, 0, 1, 1], 
[0, 0, 1, 1], 
[1, 1, 1, 1]], 
[[1, 1, 1, 1], 
[0, 1, 0, 1], 
[0, 0, 0, 1], 
[0, 0, 1, 1], 
[0, 0, 1, 1], 
[0, 0, 1, 1], 
[0, 0, 1, 1], 
[1, 1, 1, 1]], 
[[1, 1, 1, 1], 
[1, 1, 0, 1], 
[1, 0, 0, 1], 
[1, 0, 1, 1], 
[1, 0, 1, 1], 
[1, 0, 1, 1], 
[1, 0, 1, 1], 
[1, 1, 1, 1]], 
[[1, 1, 1, 1], 
[1, 1, 0, 1], 
[1, 0, 0, 1], 
[1, 0, 1, 1], 
[1, 0, 1, 1], 
[1, 0, 1, 1], 
[1, 1, 1, 1], 
[1, 1, 1, 1]], 
[[1, 1, 1, 1], 
[1, 1, 0, 1], 
[1, 1, 0, 1], 
[1, 1, 1, 1], 
[1, 1, 1, 1], 
[1, 1, 1, 1], 
[1, 1, 1, 1], 
[1, 1, 1, 1]], 
[[1, 1, 1, 1], 
[1, 1, 0, 1], 
[1, 1, 1, 1], 
[1, 1, 1, 1], 
[1, 1, 1, 1], 
[1, 1, 1, 1], 
[1, 1, 1, 1], 
[1, 1, 1, 1]], 
[[1, 1, 1, 1], 
[1, 1, 1, 1], 
[1, 1, 1, 1], 
[1, 1, 1, 1], 
[1, 1, 1, 1], 
[1, 1, 1, 1], 
[1, 1, 1, 1], 
[1, 1, 1, 1]], 
[[1, 1, 1, 1], 
[1, 1, 1, 1], 
[1, 1, 1, 1], 
[1, 1, 1, 1], 
[1, 1, 1, 1], 
[1, 1, 1, 1], 
[1, 1, 1, 1], 
[1, 1, 1, 1]], 
[[1, 1, 1, 1], 
[1, 1, 1, 1], 
[1, 1, 1, 1], 
[1, 1, 1, 1], 
[1, 1, 1, 1], 
[1, 1, 1, 1], 
[1, 1, 1, 1], 
[1, 1, 1, 1]], 
[[1, 1, 1, 1], 
[1, 1, 1, 1], 
[1, 1, 1, 1], 
[1, 1, 1, 1], 
[1, 1, 1, 1], 
[1, 1, 1, 1], 
[1, 1, 1, 1], 
[1, 1, 1, 1]], 
[[1, 1, 1, 1], 
[1, 1, 1, 1], 
[1, 1, 1, 1], 
[1, 1, 1, 1], 
[1, 1, 1, 1], 
[1, 1, 1, 1], 
[1, 1, 1, 1], 
[1, 1, 1, 1]], 
[[1, 1, 1, 1], 
[1, 1, 1, 1], 
[1, 1, 1, 1], 
[1, 1, 1, 1], 
[1, 1, 1, 1], 
[1, 1, 1, 1], 
[1, 1, 1, 1], 
[1, 1, 1, 1]], 
[[1, 1, 1, 1], 
[1, 1, 1, 1], 
[1, 1, 1, 1], 
[1, 1, 1, 1], 
[1, 1, 1, 1], 
[1, 1, 1, 1], 
[1, 1, 1, 1], 
[1, 1, 1, 1]], 
[[1, 1, 1, 1], 
[1, 1, 1, 1], 
[1, 1, 1, 1], 
[1, 1, 1, 1], 
[1, 1, 1, 1], 
[1, 1, 1, 1], 
[1, 1, 1, 1], 
[1, 1, 1, 1]], 
[[1, 1, 1, 1], 
[1, 1, 1, 1], 
[1, 1, 1, 1], 
[1, 1, 1, 1], 
[1, 1, 1, 1], 
[1, 1, 1, 1], 
[1, 1, 1, 1], 
[1, 1, 1, 1]], 
[[1, 1, 1, 1], 
[1, 1, 1, 1], 
[1, 1, 1, 1], 
[1, 1, 1, 1], 
[1, 1, 1, 1], 
[1, 1, 1, 1], 
[1, 1, 1, 1], 
[1, 1, 1, 1]], 
[[1, 1, 1, 1], 
[1, 1, 1, 1], 
[1, 1, 1, 1], 
[1, 1, 1, 1], 
[1, 1, 1, 1], 
[1, 1, 1, 1], 
[1, 1, 1, 1], 
[1, 1, 1, 1]], 
[[1, 1, 1, 1], 
[1, 1, 1, 1], 
[1, 1, 1, 1], 
[1, 1, 1, 1], 
[1, 1, 1, 1], 
[1, 1, 1, 1], 
[1, 1, 1, 1], 
[1, 1, 1, 1]], 
[[1, 1, 1, 1], 
[1, 1, 1, 1], 
[1, 1, 1, 1], 
[1, 1, 1, 1], 
[1, 1, 1, 1], 
[1, 1, 1, 1], 
[1, 1, 1, 1], 
[1, 1, 1, 1]], 
[[1, 1, 1, 1], 
[1, 1, 1, 1], 
[1, 1, 1, 1], 
[1, 1, 1, 1], 
[1, 1, 1, 1], 
[1, 1, 1, 1], 
[1, 1, 1, 1], 
[1, 1, 1, 1]], 
[[1, 1, 1, 1], 
[1, 1, 1, 1], 
[1, 1, 1, 1], 
[1, 1, 1, 1], 
[1, 1, 1, 1], 
[1, 1, 1, 1], 
[1, 1, 1, 1], 
[1, 1, 1, 1]], 
[[1, 1, 1, 1], 
[1, 1, 1, 1], 
[1, 1, 1, 1], 
[1, 1, 1, 1], 
[1, 1, 1, 1], 
[1, 1, 1, 1], 
[1, 1, 1, 1], 
[1, 1, 1, 1]], 
[[1, 1, 1, 1], 
[1, 1, 1, 1], 
[1, 1, 1, 1], 
[1, 1, 1, 1], 
[1, 1, 1, 1], 
[1, 1, 1, 1], 
[1, 1, 1, 1], 
[1, 1, 1, 1]], 
[[1, 1, 1, 1], 
[1, 1, 1, 1], 
[1, 1, 1, 1], 
[1, 1, 1, 1], 
[1, 1, 1, 1], 
[1, 1, 1, 1], 
[1, 1, 1, 1], 
[1, 1, 1, 1]], 
[[1, 1, 1, 1], 
[1, 1, 1, 1], 
[1, 1, 1, 1], 
[1, 1, 1, 1], 
[1, 1, 1, 1], 
[1, 1, 1, 1], 
[1, 1, 1, 1], 
[1, 1, 1, 1]];int(0..27)]
letting turningPoints be [[6, 3], 
[8, 3], 
[8, 4], 
[1, 4], 
[1, 1], 
[7, 1], 
[7, 2], 
[3, 2], 
[3, 3], 
[2, 3], 
[0, 0], 
[0, 0], 
[0, 0], 
[0, 0], 
[0, 0], 
[0, 0], 
[0, 0], 
[0, 0], 
[0, 0], 
[0, 0], 
[0, 0], 
[0, 0], 
[0, 0], 
[0, 0], 
[0, 0], 
[0, 0], 
[0, 0], 
[0, 0];int(0..27)]
